
Gurobi 8.1.0 (win64, Python) logging started 12/03/18 18:00:01

Academic license - for non-commercial use only
Changed value of parameter mipgap to 0.05
   Prev: 0.0001  Min: 0.0  Max: 1e+100  Default: 0.0001
Changed value of parameter timelimit to 300.0
   Prev: 1e+100  Min: 0.0  Max: 1e+100  Default: 1e+100
Warning: variable name "v_is_assigned[Rachel_Cyan Can,2018-06-23_05:00:00]" has a space
Warning: constraint name "c_allowed[Rachel_Cyan Can,2018-06-23_05:00:00,2018-06-23_13:00:00]" has a space
Warning: to let Gurobi read it back, use rlp format
Optimize a model with 5507 rows, 307 columns and 11786 nonzeros
Variable types: 34 continuous, 273 integer (273 binary)
Coefficient statistics:
  Matrix range     [1e+00, 1e+00]
  Objective range  [1e+00, 1e+02]
  Bounds range     [1e+00, 1e+00]
  RHS range        [1e+00, 5e+00]
Found heuristic solution: objective 5639.0000000
Presolve removed 5213 rows and 0 columns
Presolve time: 0.01s
Presolved: 294 rows, 307 columns, 1607 nonzeros
Variable types: 0 continuous, 307 integer (273 binary)

Root relaxation: objective 0.000000e+00, 119 iterations, 0.00 seconds

    Nodes    |    Current Node    |     Objective Bounds      |     Work
 Expl Unexpl |  Obj  Depth IntInf | Incumbent    BestBd   Gap | It/Node Time

*    0     0               0       0.0000000    0.00000  0.00%     -    0s

Explored 0 nodes (119 simplex iterations) in 0.03 seconds
Thread count was 4 (of 4 available processors)

Solution count 2: 0 5639 

Optimal solution found (tolerance 5.00e-02)
Best objective 0.000000000000e+00, best bound 0.000000000000e+00, gap 0.0000%
Warning: variable name "v_is_assigned[Rachel_Cyan Can,2018-06-23_05:00:00]" has a space
Warning: default variable names used to write solution file
